(declare-datatypes () ((RealFruits apple orange mixed)))
(declare-const realApple RealFruits)
(declare-const realOrange RealFruits)
(declare-const realMixed RealFruits)
(assert (or (= realMixed apple) (= realMixed mixed)))
(assert (not (= realMixed mixed)))
(assert (not (= realApple apple)))
(assert (not (= realOrange orange)))
(assert (distinct realApple realOrange realMixed))
(check-sat)
(get-model)
(assert (not (= realApple orange)))
(assert (not (= realOrange mixed)))
(assert (not (= realMixed apple)))
(check-sat)
(get-model)
